%chk=C:\Users\user01\Desktop\Formamide\Li-C1.chk
# opt freq b3lyp/6-31+g(d) geom=connectivity

M0001

1 1
 Li                 0.00000000    0.00000000    0.00000000

 1

